DIMACS2
80 263 183 612 30 108 526 266 295 520 373 124 77 528 272 228 600 482 221 405 381 115 185 148 340 530 488 397 147 119 458 608 17 392 543 334 580 386 507 198 350 586 299 375 252 427 487 140 413 207 161 461 106 603 376 42 604 300 476 308 474 168 125 292 547 34 597 589 57 423 296 184 593 22 154 62 485 102 564 473 633
p edge 640 2637
e 0 403 2.0
e 0 215 3.0
e 0 216 1.0
e 0 307 1.0
e 1 315 1.0
e 1 565 2.0
e 1 472 1.0
e 1 127 2.0
e 2 235 1.0
e 2 593 7.0
e 2 415 2.0
e 2 407 1.0
e 3 484 1.0
e 3 351 1.0
e 3 566 2.0
e 3 183 4.0
e 4 132 1.0
e 4 534 1.0
e 4 179 1.0
e 4 12 1.0
e 5 458 38.0
e 5 460 1.0
e 5 441 1.0
e 5 232 1.0
e 6 227 2.0
e 6 210 2.0
e 6 621 1.0
e 6 635 2.0
e 7 475 2.0
e 7 246 1.0
e 7 487 14.0
e 7 623 1.0
e 8 597 38.0
e 8 150 2.0
e 8 419 1.0
e 8 463 2.0
e 9 248 1.0
e 9 261 2.0
e 9 519 1.0
e 9 103 1.0
e 10 41 1.0
e 10 375 22.0
e 10 126 1.0
e 10 37 1.0
e 11 327 1.0
e 11 142 1.0
e 11 379 1.0
e 11 308 44.0
e 12 627 1.0
e 12 507 5.0
e 12 595 2.0
e 12 73 1.0
e 13 412 2.0
e 13 121 1.0
e 13 111 1.0
e 13 10 1.0
e 14 533 1.0
e 14 8 1.0
e 14 417 2.0
e 14 634 2.0
e 15 466 1.0
e 15 389 1.0
e 15 505 2.0
e 15 495 2.0
e 16 280 1.0
e 16 560 1.0
e 16 43 2.0
e 16 573 1.0
e 17 55 28.0
e 17 320 10.0
e 17 574 21.0
e 17 44 41.0
e 17 22 22.0
e 17 547 34.0
e 18 383 1.0
e 18 430 1.0
e 18 94 1.0
e 18 242 1.0
e 19 146 1.0
e 19 628 2.0
e 19 622 2.0
e 19 396 1.0
e 20 360 1.0
e 20 52 1.0
e 20 343 3.0
e 20 387 2.0
e 21 75 1.0
e 21 469 1.0
e 21 5 1.0
e 21 171 1.0
e 22 501 4.0
e 22 123 9.0
e 22 178 11.0
e 22 594 34.0
e 22 252 28.0
e 23 172 1.0
e 23 343 1.0
e 23 538 1.0
e 23 153 1.0
e 24 29 2.0
e 24 415 1.0
e 24 167 1.0
e 24 60 1.0
e 25 617 2.0
e 25 457 1.0
e 25 463 1.0
e 25 395 1.0
e 26 439 1.0
e 26 611 1.0
e 26 251 2.0
e 26 272 26.0
e 27 385 2.0
e 27 250 1.0
e 27 577 2.0
e 27 34 14.0
e 28 217 2.0
e 28 529 1.0
e 28 413 16.0
e 28 82 1.0
e 29 356 1.0
e 29 404 1.0
e 29 76 1.0
e 29 168 27.0
e 30 255 19.0
e 30 0 34.0
e 30 421 14.0
e 30 290 6.0
e 30 633 27.0
e 31 192 2.0
e 31 14 1.0
e 31 465 1.0
e 31 36 1.0
e 32 337 2.0
e 32 95 1.0
e 32 167 1.0
e 32 104 1.0
e 33 401 1.0
e 33 539 1.0
e 33 546 1.0
e 33 540 1.0
e 34 82 9.0
e 34 159 33.0
e 34 252 25.0
e 34 157 14.0
e 34 57 5.0
e 35 46 1.0
e 35 8 2.0
e 35 543 13.0
e 35 624 1.0
e 36 98 1.0
e 36 216 2.0
e 36 587 1.0
e 36 343 1.0
e 37 152 1.0
e 37 74 1.0
e 37 606 2.0
e 37 416 2.0
e 38 521 1.0
e 38 307 1.0
e 38 229 1.0
e 38 499 1.0
e 39 123 1.0
e 39 302 2.0
e 39 180 2.0
e 39 464 1.0
e 40 26 2.0
e 40 383 1.0
e 40 262 1.0
e 40 473 6.0
e 41 593 35.0
e 41 380 1.0
e 41 365 1.0
e 41 358 1.0
e 42 310 19.0
e 42 14 8.0
e 42 121 6.0
e 42 17 22.0
e 43 18 1.0
e 43 35 1.0
e 43 26 1.0
e 43 558 1.0
e 44 566 1.0
e 44 297 1.0
e 44 599 2.0
e 44 78 1.0
e 45 173 1.0
e 45 600 40.0
e 45 52 1.0
e 45 569 1.0
e 46 333 1.0
e 46 510 1.0
e 46 602 1.0
e 46 202 2.0
e 47 467 1.0
e 47 52 1.0
e 47 607 1.0
e 47 342 1.0
e 48 446 1.0
e 48 236 1.0
e 48 143 1.0
e 48 268 1.0
e 49 10 1.0
e 49 1 1.0
e 49 27 2.0
e 49 638 2.0
e 50 549 2.0
e 50 287 1.0
e 50 600 29.0
e 50 36 1.0
e 51 602 1.0
e 51 429 2.0
e 51 159 1.0
e 51 239 1.0
e 52 53 1.0
e 52 7 3.0
e 52 120 1.0
e 52 493 1.0
e 53 32 1.0
e 53 537 1.0
e 53 367 2.0
e 53 293 1.0
e 54 98 1.0
e 54 18 1.0
e 54 563 2.0
e 54 197 1.0
e 55 214 2.0
e 55 83 1.0
e 55 363 1.0
e 55 529 1.0
e 56 466 1.0
e 56 501 1.0
e 56 3 1.0
e 56 455 1.0
e 57 422 26.0
e 57 84 18.0
e 57 113 14.0
e 57 338 29.0
e 58 42 9.0
e 58 625 1.0
e 58 447 1.0
e 58 3 1.0
e 59 15 1.0
e 59 214 1.0
e 59 593 37.0
e 59 452 1.0
e 60 571 1.0
e 60 219 2.0
e 60 318 1.0
e 60 617 1.0
e 61 535 1.0
e 61 10 1.0
e 61 633 19.0
e 61 273 2.0
e 62 82 14.0
e 62 117 16.0
e 62 174 1.0
e 62 428 10.0
e 62 198 34.0
e 62 296 11.0
e 63 42 15.0
e 63 56 2.0
e 63 131 1.0
e 63 166 1.0
e 64 371 1.0
e 64 290 1.0
e 64 295 47.0
e 64 446 1.0
e 65 295 2.0
e 65 303 1.0
e 65 284 1.0
e 65 505 1.0
e 66 402 2.0
e 66 192 1.0
e 66 320 1.0
e 66 604 17.0
e 67 204 1.0
e 67 353 1.0
e 67 631 1.0
e 67 500 2.0
e 68 213 1.0
e 68 44 1.0
e 68 99 1.0
e 68 43 1.0
e 69 375 47.0
e 69 184 25.0
e 69 246 1.0
e 69 607 1.0
e 70 61 1.0
e 70 144 1.0
e 70 632 1.0
e 70 363 2.0
e 71 521 1.0
e 71 597 5.0
e 71 306 1.0
e 71 287 1.0
e 72 126 1.0
e 72 231 1.0
e 72 138 2.0
e 72 209 1.0
e 73 339 3.0
e 73 279 1.0
e 73 428 1.0
e 73 88 1.0
e 74 604 9.0
e 74 472 1.0
e 74 319 1.0
e 74 134 1.0
e 75 250 1.0
e 75 100 1.0
e 75 413 8.0
e 75 87 1.0
e 76 592 1.0
e 76 615 1.0
e 76 246 1.0
e 76 149 1.0
e 77 71 36.0
e 77 159 39.0
e 77 186 22.0
e 77 510 1.0
e 77 586 48.0
e 77 530 3.0
e 77 147 9.0
e 78 268 1.0
e 78 311 1.0
e 78 545 1.0
e 78 150 2.0
e 79 353 1.0
e 79 502 2.0
e 79 244 1.0
e 79 378 2.0
e 80 290 2.0
e 80 494 1.0
e 80 637 1.0
e 80 349 1.0
e 81 192 1.0
e 81 623 1.0
e 81 346 2.0
e 81 461 34.0
e 82 620 1.0
e 82 522 1.0
e 82 312 1.0
e 82 207 22.0
e 83 390 1.0
e 83 144 1.0
e 83 4 1.0
e 83 489 1.0
e 84 118 1.0
e 84 566 1.0
e 84 205 1.0
e 84 589 32.0
e 85 520 30.0
e 85 402 1.0
e 85 74 1.0
e 85 121 1.0
e 86 111 1.0
e 86 467 1.0
e 86 219 1.0
e 86 13 1.0
e 87 92 1.0
e 87 406 2.0
e 87 53 1.0
e 87 429 1.0
e 88 579 1.0
e 88 40 1.0
e 88 315 1.0
e 88 90 1.0
e 89 301 1.0
e 89 46 2.0
e 89 149 1.0
e 89 559 1.0
e 90 286 1.0
e 90 16 2.0
e 90 406 1.0
e 90 300 20.0
e 91 487 12.0
e 91 503 1.0
e 91 184 10.0
e 91 377 2.0
e 92 158 1.0
e 92 15 2.0
e 92 598 1.0
e 92 638 2.0
e 93 529 1.0
e 93 188 1.0
e 93 526 5.0
e 93 329 1.0
e 94 543 28.0
e 94 149 1.0
e 94 545 2.0
e 94 393 3.0
e 95 42 48.0
e 95 96 1.0
e 95 561 1.0
e 95 370 1.0
e 96 443 1.0
e 96 388 1.0
e 96 418 1.0
e 96 158 1.0
e 97 43 2.0
e 97 107 1.0
e 97 336 2.0
e 97 344 1.0
e 98 113 1.0
e 98 592 1.0
e 98 45 1.0
e 98 347 1.0
e 99 211 2.0
e 99 542 1.0
e 99 478 2.0
e 99 156 2.0
e 100 215 1.0
e 100 12 1.0
e 100 202 1.0
e 100 234 1.0
e 101 380 1.0
e 101 397 30.0
e 101 555 1.0
e 101 598 1.0
e 102 499 17.0
e 102 505 39.0
e 102 332 4.0
e 102 269 45.0
e 102 183 45.0
e 102 597 22.0
e 103 617 1.0
e 103 227 1.0
e 103 218 1.0
e 103 95 1.0
e 104 85 1.0
e 104 627 1.0
e 104 252 34.0
e 104 576 1.0
e 105 565 1.0
e 105 242 2.0
e 105 145 1.0
e 105 263 19.0
e 106 393 32.0
e 106 247 4.0
e 106 606 42.0
e 106 80 45.0
e 106 580 18.0
e 107 163 1.0
e 107 565 1.0
e 107 337 2.0
e 107 75 1.0
e 108 62 14.0
e 108 629 16.0
e 108 175 33.0
e 108 567 12.0
e 108 373 4.0
e 109 371 1.0
e 109 484 2.0
e 109 299 10.0
e 109 174 1.0
e 110 401 1.0
e 110 456 1.0
e 110 342 1.0
e 110 194 1.0
e 111 371 1.0
e 111 450 2.0
e 111 131 1.0
e 112 400 1.0
e 112 190 2.0
e 112 460 1.0
e 112 636 1.0
e 113 14 1.0
e 113 637 1.0
e 113 601 2.0
e 113 409 1.0
e 114 387 1.0
e 114 554 1.0
e 114 420 1.0
e 114 523 1.0
e 115 138 44.0
e 115 444 16.0
e 115 53 4.0
e 115 30 4.0
e 115 633 24.0
e 115 183 34.0
e 115 34 35.0
e 116 88 1.0
e 116 70 1.0
e 116 596 1.0
e 116 366 1.0
e 117 358 1.0
e 117 274 1.0
e 117 600 45.0
e 117 188 1.0
e 118 269 1.0
e 118 517 1.0
e 118 314 2.0
e 118 102 26.0
e 119 15 22.0
e 119 581 21.0
e 119 575 29.0
e 119 233 9.0
e 120 296 19.0
e 120 94 2.0
e 120 75 2.0
e 120 246 2.0
e 121 554 1.0
e 121 534 1.0
e 121 217 1.0
e 121 215 1.0
e 122 332 1.0
e 122 440 2.0
e 122 149 1.0
e 122 608 3.0
e 123 547 9.0
e 123 10 1.0
e 123 18 1.0
e 123 290 1.0
e 124 396 2.0
e 124 553 20.0
e 124 170 31.0
e 124 61 47.0
e 124 376 44.0
e 124 597 45.0
e 125 222 26.0
e 125 476 25.0
e 125 435 40.0
e 125 157 43.0
e 125 57 42.0
e 125 564 2.0
e 126 9 1.0
e 126 451 1.0
e 126 578 1.0
e 126 252 29.0
e 127 462 1.0
e 127 632 1.0
e 127 579 2.0
e 127 17 43.0
e 128 536 1.0
e 128 454 1.0
e 128 391 1.0
e 128 176 1.0
e 129 324 1.0
e 129 448 2.0
e 129 593 13.0
e 129 412 1.0
e 130 423 42.0
e 130 340 16.0
e 130 595 2.0
e 130 315 1.0
e 131 510 1.0
e 131 307 1.0
e 131 540 1.0
e 131 245 1.0
e 132 391 2.0
e 132 241 2.0
e 132 207 37.0
e 132 178 1.0
e 133 543 22.0
e 133 359 1.0
e 133 331 1.0
e 133 148 33.0
e 134 512 1.0
e 134 468 1.0
e 134 590 2.0
e 134 407 1.0
e 135 113 1.0
e 135 508 1.0
e 135 472 1.0
e 135 622 1.0
e 136 400 1.0
e 136 385 1.0
e 136 45 1.0
e 136 395 1.0
e 137 205 1.0
e 137 92 1.0
e 137 381 33.0
e 137 398 1.0
e 138 54 1.0
e 138 477 1.0
e 138 75 1.0
e 138 314 1.0
e 139 400 1.0
e 139 413 42.0
e 139 459 1.0
e 139 116 1.0
e 140 318 6.0
e 140 248 24.0
e 140 623 7.0
e 140 576 26.0
e 141 343 2.0
e 141 533 2.0
e 141 610 1.0
e 141 620 3.0
e 142 167 1.0
e 142 199 1.0
e 142 398 1.0
e 142 248 1.0
e 143 501 1.0
e 143 565 1.0
e 143 18 1.0
e 143 556 1.0
e 144 123 1.0
e 144 116 1.0
e 144 32 1.0
e 144 155 1.0
e 145 271 1.0
e 145 129 1.0
e 145 607 1.0
e 145 344 1.0
e 146 56 1.0
e 146 481 1.0
e 146 497 1.0
e 146 453 2.0
e 147 46 9.0
e 147 417 27.0
e 147 158 40.0
e 147 476 38.0
e 147 30 26.0
e 148 184 15.0
e 148 342 22.0
e 148 312 31.0
e 148 320 22.0
e 148 633 6.0
e 149 51 1.0
e 149 610 1.0
e 149 58 1.0
e 149 619 1.0
e 150 594 1.0
e 150 6 1.0
e 150 45 1.0
e 150 383 1.0
e 151 397 31.0
e 151 296 47.0
e 151 261 1.0
e 151 428 1.0
e 152 457 1.0
e 152 184 19.0
e 152 290 3.0
e 152 440 1.0
e 153 187 1.0
e 153 168 25.0
e 153 184 46.0
e 153 352 1.0
e 154 90 33.0
e 154 529 23.0
e 154 31 14.0
e 154 234 27.0
e 154 77 35.0
e 154 633 1.0
e 155 202 1.0
e 155 48 2.0
e 155 83 1.0
e 155 182 1.0
e 156 630 3.0
e 156 147 15.0
e 156 403 1.0
e 156 570 1.0
e 157 378 1.0
e 157 510 1.0
e 157 464 2.0
e 157 238 1.0
e 158 122 1.0
e 158 540 1.0
e 158 74 1.0
e 158 485 14.0
e 159 107 1.0
e 159 149 1.0
e 159 479 2.0
e 159 219 2.0
e 160 65 1.0
e 160 480 1.0
e 160 6 1.0
e 160 37 2.0
e 161 242 13.0
e 161 597 36.0
e 161 320 9.0
e 161 241 8.0
e 161 458 9.0
e 161 292 37.0
e 162 134 1.0
e 162 635 1.0
e 162 499 2.0
e 162 411 2.0
e 163 585 2.0
e 163 269 1.0
e 163 97 1.0
e 163 522 1.0
e 164 281 1.0
e 164 348 1.0
e 164 200 1.0
e 164 173 1.0
e 165 365 1.0
e 165 117 1.0
e 165 263 29.0
e 165 48 2.0
e 166 38 1.0
e 166 617 1.0
e 166 59 1.0
e 166 498 1.0
e 167 527 1.0
e 167 195 1.0
e 167 254 1.0
e 167 410 2.0
e 168 530 23.0
e 168 115 36.0
e 168 545 15.0
e 168 464 43.0
e 168 458 2.0
e 169 121 1.0
e 169 379 1.0
e 169 576 1.0
e 169 131 1.0
e 170 31 1.0
e 170 178 2.0
e 170 96 1.0
e 170 97 1.0
e 171 176 1.0
e 171 341 1.0
e 171 562 1.0
e 171 357 1.0
e 172 240 2.0
e 172 95 1.0
e 172 209 3.0
e 172 571 1.0
e 173 106 27.0
e 173 113 2.0
e 173 536 1.0
e 173 605 1.0
e 174 142 1.0
e 174 363 1.0
e 174 159 1.0
e 174 604 47.0
e 175 616 1.0
e 175 24 1.0
e 175 338 1.0
e 175 499 2.0
e 176 347 1.0
e 176 422 1.0
e 176 142 1.0
e 176 588 1.0
e 177 148 11.0
e 177 151 2.0
e 177 440 1.0
e 177 553 2.0
e 178 412 1.0
e 178 320 1.0
e 178 363 3.0
e 178 110 1.0
e 179 214 1.0
e 179 221 42.0
e 179 495 2.0
e 179 338 1.0
e 180 221 11.0
e 180 152 1.0
e 180 400 1.0
e 180 582 1.0
e 181 380 1.0
e 181 341 1.0
e 181 203 1.0
e 181 376 13.0
e 182 222 2.0
e 182 219 2.0
e 182 419 2.0
e 182 336 3.0
e 183 300 33.0
e 183 221 7.0
e 183 337 7.0
e 183 368 44.0
e 184 546 6.0
e 184 108 14.0
e 184 65 3.0
e 184 189 20.0
e 185 256 6.0
e 185 371 37.0
e 185 35 25.0
e 185 350 31.0
e 185 62 12.0
e 185 507 48.0
e 186 23 2.0
e 186 14 1.0
e 186 138 1.0
e 186 536 2.0
e 187 493 1.0
e 187 82 1.0
e 187 564 9.0
e 187 556 1.0
e 188 563 2.0
e 188 150 1.0
e 188 452 1.0
e 188 124 15.0
e 189 364 1.0
e 189 447 1.0
e 189 375 22.0
e 189 50 2.0
e 190 425 2.0
e 190 372 1.0
e 190 90 2.0
e 190 207 35.0
e 191 524 1.0
e 191 149 1.0
e 191 134 1.0
e 191 34 14.0
e 192 212 1.0
e 192 561 1.0
e 192 171 1.0
e 192 70 1.0
e 193 611 1.0
e 193 384 2.0
e 193 237 2.0
e 193 311 1.0
e 194 180 1.0
e 194 183 20.0
e 194 381 45.0
e 194 622 1.0
e 195 9 2.0
e 195 410 2.0
e 195 59 1.0
e 195 160 1.0
e 196 612 35.0
e 196 316 1.0
e 196 337 1.0
e 196 122 1.0
e 197 483 2.0
e 197 52 1.0
e 197 453 1.0
e 197 339 2.0
e 198 420 19.0
e 198 343 26.0
e 198 434 49.0
e 198 92 32.0
e 198 461 16.0
e 198 228 5.0
e 199 336 1.0
e 199 147 18.0
e 199 571 1.0
e 199 434 1.0
e 200 162 1.0
e 200 405 41.0
e 200 98 1.0
e 200 147 22.0
e 201 602 2.0
e 201 27 3.0
e 201 272 15.0
e 201 123 2.0
e 202 435 1.0
e 202 397 3.0
e 202 267 2.0
e 202 452 1.0
e 203 27 1.0
e 203 141 2.0
e 203 252 41.0
e 203 179 2.0
e 204 619 2.0
e 204 115 4.0
e 204 150 1.0
e 204 396 2.0
e 205 509 1.0
e 205 285 1.0
e 205 570 1.0
e 205 316 1.0
e 206 20 2.0
e 206 180 1.0
e 206 168 24.0
e 206 593 21.0
e 207 148 36.0
e 207 112 5.0
e 207 216 7.0
e 208 357 1.0
e 208 15 1.0
e 208 512 1.0
e 208 206 1.0
e 209 307 2.0
e 209 595 2.0
e 209 20 1.0
e 209 50 2.0
e 210 349 1.0
e 210 260 1.0
e 210 414 1.0
e 210 28 2.0
e 211 2 1.0
e 211 582 1.0
e 211 628 2.0
e 211 537 1.0
e 212 100 1.0
e 212 379 2.0
e 212 281 2.0
e 212 580 39.0
e 213 241 1.0
e 213 26 3.0
e 213 234 1.0
e 213 16 2.0
e 214 142 1.0
e 214 447 1.0
e 214 321 1.0
e 214 522 1.0
e 215 397 19.0
e 215 42 33.0
e 215 246 3.0
e 215 533 1.0
e 216 359 1.0
e 216 477 1.0
e 216 61 1.0
e 216 289 1.0
e 217 142 1.0
e 217 314 1.0
e 217 261 1.0
e 217 584 1.0
e 218 615 1.0
e 218 128 1.0
e 218 288 1.0
e 218 315 1.0
e 219 122 2.0
e 219 514 1.0
e 219 235 1.0
e 219 16 2.0
e 220 341 1.0
e 220 249 2.0
e 220 102 49.0
e 220 394 2.0
e 221 631 43.0
e 221 437 6.0
e 221 39 9.0
e 221 197 9.0
e 222 120 2.0
e 222 339 1.0
e 222 444 2.0
e 222 366 2.0
e 223 170 1.0
e 223 526 12.0
e 223 112 1.0
e 223 180 1.0
e 224 189 1.0
e 224 202 1.0
e 224 312 1.0
e 224 176 1.0
e 225 431 1.0
e 225 136 1.0
e 225 39 3.0
e 225 437 1.0
e 226 426 2.0
e 226 68 1.0
e 226 389 1.0
e 226 143 1.0
e 227 165 1.0
e 227 196 1.0
e 227 35 1.0
e 227 444 2.0
e 228 273 25.0
e 228 428 27.0
e 228 372 37.0
e 228 385 26.0
e 229 288 1.0
e 229 543 19.0
e 229 221 9.0
e 229 617 1.0
e 230 557 1.0
e 230 77 15.0
e 230 136 1.0
e 230 332 2.0
e 231 534 1.0
e 231 256 1.0
e 231 135 1.0
e 231 26 2.0
e 232 387 1.0
e 232 487 44.0
e 232 11 1.0
e 232 515 1.0
e 233 618 1.0
e 233 109 2.0
e 233 293 1.0
e 233 631 1.0
e 234 572 1.0
e 234 327 1.0
e 234 149 1.0
e 234 450 1.0
e 235 58 1.0
e 235 104 1.0
e 235 137 2.0
e 235 44 1.0
e 236 411 1.0
e 236 247 1.0
e 236 141 1.0
e 236 22 28.0
e 237 465 1.0
e 237 568 1.0
e 237 165 2.0
e 237 486 2.0
e 238 425 1.0
e 238 67 1.0
e 238 45 2.0
e 238 170 2.0
e 239 270 1.0
e 239 244 1.0
e 239 461 31.0
e 239 65 1.0
e 240 565 2.0
e 240 512 1.0
e 240 610 2.0
e 240 482 20.0
e 241 42 18.0
e 241 314 2.0
e 241 484 1.0
e 241 352 1.0
e 242 514 1.0
e 242 236 2.0
e 242 433 2.0
e 242 283 2.0
e 243 121 1.0
e 243 171 1.0
e 243 321 1.0
e 243 237 2.0
e 244 344 1.0
e 244 128 1.0
e 244 199 2.0
e 244 634 1.0
e 245 566 1.0
e 245 514 1.0
e 245 65 1.0
e 245 536 1.0
e 246 353 1.0
e 246 30 13.0
e 246 59 1.0
e 246 143 1.0
e 247 132 1.0
e 247 46 2.0
e 247 637 1.0
e 247 95 2.0
e 248 542 1.0
e 248 201 1.0
e 248 108 33.0
e 248 565 2.0
e 249 365 1.0
e 249 58 1.0
e 249 393 1.0
e 249 358 1.0
e 250 361 1.0
e 250 267 2.0
e 250 120 3.0
e 250 592 1.0
e 251 276 2.0
e 251 68 1.0
e 251 98 1.0
e 251 324 1.0
e 252 185 29.0
e 252 505 24.0
e 252 119 46.0
e 252 44 27.0
e 253 329 1.0
e 253 287 1.0
e 253 615 1.0
e 253 250 1.0
e 254 521 1.0
e 254 568 1.0
e 254 74 1.0
e 254 315 1.0
e 255 509 1.0
e 255 225 1.0
e 255 477 2.0
e 255 144 1.0
e 256 142 3.0
e 256 452 1.0
e 256 459 2.0
e 257 341 1.0
e 257 346 1.0
e 257 217 1.0
e 257 445 1.0
e 258 473 17.0
e 258 501 2.0
e 258 369 2.0
e 258 57 2.0
e 259 495 2.0
e 259 526 27.0
e 259 601 1.0
e 259 594 1.0
e 260 594 1.0
e 260 394 2.0
e 260 469 1.0
e 260 353 1.0
e 261 196 1.0
e 261 454 1.0
e 261 464 1.0
e 261 255 1.0
e 262 634 1.0
e 262 134 2.0
e 262 238 1.0
e 262 66 1.0
e 263 59 14.0
e 263 483 49.0
e 263 556 17.0
e 263 101 33.0
e 263 375 42.0
e 263 198 46.0
e 264 122 2.0
e 264 277 2.0
e 264 165 2.0
e 264 455 1.0
e 265 550 1.0
e 265 138 1.0
e 265 632 1.0
e 265 357 1.0
e 266 126 30.0
e 266 439 24.0
e 266 64 29.0
e 266 173 44.0
e 266 147 10.0
e 266 183 11.0
e 266 148 22.0
e 267 119 39.0
e 267 499 1.0
e 267 79 1.0
e 267 261 1.0
e 268 92 2.0
e 268 548 1.0
e 268 261 1.0
e 268 488 6.0
e 269 315 1.0
e 269 614 1.0
e 269 467 1.0
e 269 238 1.0
e 270 621 1.0
e 270 469 1.0
e 270 24 1.0
e 270 492 1.0
e 271 503 1.0
e 271 464 2.0
e 271 510 1.0
e 271 563 1.0
e 272 303 3.0
e 272 438 15.0
e 272 278 25.0
e 272 11 24.0
e 272 520 9.0
e 272 586 47.0
e 272 140 22.0
e 273 82 2.0
e 273 328 2.0
e 273 582 2.0
e 273 7 2.0
e 274 60 1.0
e 274 31 1.0
e 274 348 2.0
e 274 520 33.0
e 275 209 2.0
e 275 71 1.0
e 275 441 1.0
e 275 622 1.0
e 276 501 1.0
e 276 211 1.0
e 276 428 2.0
e 276 564 4.0
e 277 424 1.0
e 277 409 1.0
e 277 308 24.0
e 277 406 1.0
e 278 131 3.0
e 278 75 1.0
e 278 191 1.0
e 278 166 2.0
e 279 335 1.0
e 279 80 1.0
e 279 421 2.0
e 279 567 1.0
e 280 167 1.0
e 280 19 1.0
e 280 274 1.0
e 280 110 1.0
e 281 222 1.0
e 281 359 2.0
e 281 494 1.0
e 281 403 1.0
e 282 27 1.0
e 282 254 1.0
e 282 170 1.0
e 282 421 2.0
e 283 574 1.0
e 283 629 1.0
e 283 321 1.0
e 283 7 1.0
e 284 569 1.0
e 284 51 1.0
e 284 515 1.0
e 284 490 1.0
e 285 325 1.0
e 285 515 1.0
e 285 60 1.0
e 285 573 1.0
e 286 324 1.0
e 286 307 1.0
e 286 495 2.0
e 286 347 3.0
e 287 485 10.0
e 287 512 1.0
e 287 497 2.0
e 287 597 19.0
e 288 286 1.0
e 288 46 2.0
e 288 36 1.0
e 288 417 2.0
e 289 67 1.0
e 289 399 1.0
e 289 388 3.0
e 289 380 1.0
e 290 126 1.0
e 290 401 1.0
e 290 357 2.0
e 290 310 1.0
e 291 304 1.0
e 291 5 1.0
e 291 459 1.0
e 291 315 1.0
e 292 209 2.0
e 292 2 35.0
e 292 586 35.0
e 292 536 47.0
e 293 175 1.0
e 293 541 1.0
e 293 624 1.0
e 293 199 2.0
e 294 17 24.0
e 294 527 1.0
e 294 264 2.0
e 294 157 1.0
e 295 348 11.0
e 295 25 3.0
e 295 638 1.0
e 295 579 19.0
e 296 137 27.0
e 296 367 42.0
e 296 352 42.0
e 296 623 14.0
e 296 350 6.0
e 296 154 18.0
e 297 111 1.0
e 297 74 1.0
e 297 586 42.0
e 297 511 1.0
e 298 57 48.0
e 298 89 2.0
e 298 467 2.0
e 298 156 1.0
e 299 616 21.0
e 299 95 3.0
e 299 286 44.0
e 299 11 46.0
e 299 427 7.0
e 299 458 28.0
e 299 263 47.0
e 300 42 23.0
e 300 412 29.0
e 300 474 35.0
e 300 636 2.0
e 301 62 33.0
e 301 464 2.0
e 301 227 2.0
e 301 325 1.0
e 302 433 1.0
e 302 128 1.0
e 302 32 1.0
e 302 165 2.0
e 303 197 2.0
e 303 600 10.0
e 303 575 1.0
e 303 464 1.0
e 304 4 1.0
e 304 515 3.0
e 304 80 1.0
e 304 576 1.0
e 305 616 1.0
e 305 604 34.0
e 305 65 1.0
e 305 207 34.0
e 306 454 2.0
e 306 93 2.0
e 306 38 2.0
e 306 10 1.0
e 307 211 1.0
e 307 553 1.0
e 307 99 1.0
e 307 18 1.0
e 308 435 45.0
e 308 536 17.0
e 308 419 46.0
e 308 178 32.0
e 309 559 1.0
e 309 116 1.0
e 309 496 1.0
e 309 205 2.0
e 310 107 1.0
e 310 204 1.0
e 310 183 2.0
e 310 185 46.0
e 311 313 2.0
e 311 65 1.0
e 311 181 2.0
e 311 366 2.0
e 312 175 1.0
e 312 393 1.0
e 312 235 2.0
e 312 233 1.0
e 313 9 2.0
e 313 197 2.0
e 313 356 1.0
e 313 48 1.0
e 314 152 1.0
e 314 10 1.0
e 314 602 1.0
e 314 388 1.0
e 315 244 1.0
e 315 220 1.0
e 315 247 1.0
e 315 591 1.0
e 316 81 1.0
e 316 221 9.0
e 316 127 1.0
e 316 637 1.0
e 317 421 1.0
e 317 235 1.0
e 317 612 41.0
e 317 303 1.0
e 318 228 16.0
e 318 470 1.0
e 318 89 1.0
e 318 567 1.0
e 319 22 3.0
e 319 156 1.0
e 319 561 1.0
e 319 252 42.0
e 320 110 1.0
e 320 188 1.0
e 320 153 1.0
e 320 439 1.0
e 321 504 1.0
e 321 253 1.0
e 321 121 1.0
e 321 9 2.0
e 322 432 1.0
e 322 53 2.0
e 322 527 3.0
e 322 244 1.0
e 323 119 37.0
e 323 637 1.0
e 323 174 1.0
e 323 229 1.0
e 324 87 1.0
e 324 467 2.0
e 324 468 1.0
e 324 266 46.0
e 325 19 1.0
e 325 90 1.0
e 325 293 1.0
e 325 611 1.0
e 326 367 1.0
e 326 131 2.0
e 326 308 49.0
e 326 452 3.0
e 327 241 1.0
e 327 615 1.0
e 327 259 1.0
e 327 44 1.0
e 328 545 1.0
e 328 524 1.0
e 328 32 1.0
e 328 535 2.0
e 329 181 1.0
e 329 295 39.0
e 329 388 1.0
e 329 387 1.0
e 330 490 1.0
e 330 494 1.0
e 330 331 1.0
e 330 107 1.0
e 331 158 1.0
e 331 73 1.0
e 331 584 1.0
e 331 470 1.0
e 332 589 45.0
e 332 312 1.0
e 332 162 1.0
e 332 399 1.0
e 333 487 2.0
e 333 628 2.0
e 333 21 1.0
e 333 238 1.0
e 334 294 38.0
e 334 329 39.0
e 334 180 41.0
e 334 556 37.0
e 335 202 1.0
e 335 487 18.0
e 335 234 1.0
e 335 474 18.0
e 336 138 1.0
e 336 59 1.0
e 336 112 1.0
e 336 519 1.0
e 337 55 1.0
e 337 619 1.0
e 337 181 1.0
e 337 190 2.0
e 338 443 1.0
e 338 583 1.0
e 338 457 1.0
e 338 266 3.0
e 339 571 1.0
e 339 322 1.0
e 339 64 2.0
e 339 28 2.0
e 340 20 8.0
e 340 634 43.0
e 340 229 8.0
e 340 435 41.0
e 340 266 30.0
e 340 547 17.0
e 340 520 32.0
e 341 476 44.0
e 341 362 3.0
e 341 433 1.0
e 341 371 1.0
e 342 295 23.0
e 342 395 1.0
e 342 36 1.0
e 342 525 1.0
e 343 357 1.0
e 343 523 1.0
e 343 488 9.0
e 343 322 1.0
e 344 428 1.0
e 344 238 1.0
e 344 218 1.0
e 344 592 1.0
e 345 69 1.0
e 345 410 1.0
e 345 257 2.0
e 345 140 18.0
e 346 382 1.0
e 346 130 1.0
e 346 285 1.0
e 346 360 2.0
e 347 466 1.0
e 347 367 1.0
e 347 593 48.0
e 347 107 1.0
e 348 250 2.0
e 348 535 1.0
e 348 137 1.0
e 348 54 3.0
e 349 30 32.0
e 349 246 1.0
e 349 501 1.0
e 349 541 1.0
e 350 289 38.0
e 350 338 7.0
e 350 167 16.0
e 350 367 28.0
e 350 603 24.0
e 351 371 1.0
e 351 459 1.0
e 351 445 1.0
e 351 628 1.0
e 352 513 1.0
e 352 103 1.0
e 352 225 1.0
e 352 423 7.0
e 353 391 1.0
e 353 295 24.0
e 353 530 4.0
e 353 297 1.0
e 354 586 48.0
e 354 111 1.0
e 354 309 1.0
e 354 412 2.0
e 355 548 1.0
e 355 618 1.0
e 355 205 1.0
e 355 614 1.0
e 356 232 1.0
e 356 448 1.0
e 356 434 2.0
e 356 428 1.0
e 357 255 1.0
e 357 204 1.0
e 357 445 1.0
e 357 10 1.0
e 358 537 1.0
e 358 615 1.0
e 358 217 1.0
e 358 484 1.0
e 359 539 1.0
e 359 411 1.0
e 359 185 33.0
e 359 170 1.0
e 360 392 14.0
e 360 544 2.0
e 360 429 2.0
e 360 78 1.0
e 361 594 1.0
e 361 98 1.0
e 361 392 6.0
e 361 35 1.0
e 362 326 2.0
e 362 368 2.0
e 362 243 2.0
e 362 263 28.0
e 363 285 2.0
e 363 308 42.0
e 363 470 1.0
e 363 156 1.0
e 364 525 1.0
e 364 390 1.0
e 364 454 1.0
e 364 65 1.0
e 365 599 2.0
e 365 444 1.0
e 365 59 1.0
e 365 583 2.0
e 366 334 15.0
e 366 92 1.0
e 366 163 1.0
e 366 101 2.0
e 367 600 48.0
e 367 69 1.0
e 367 433 1.0
e 367 472 1.0
e 368 52 1.0
e 368 514 2.0
e 368 377 2.0
e 368 494 1.0
e 369 116 2.0
e 369 478 1.0
e 369 21 1.0
e 369 377 1.0
e 370 213 1.0
e 370 343 1.0
e 370 469 3.0
e 370 161 24.0
e 371 503 1.0
e 371 370 1.0
e 371 486 1.0
e 371 77 3.0
e 372 353 1.0
e 372 563 1.0
e 372 319 1.0
e 372 427 8.0
e 373 340 5.0
e 373 74 31.0
e 373 310 17.0
e 373 30 45.0
e 374 304 1.0
e 374 422 1.0
e 374 268 2.0
e 374 517 1.0
e 375 492 20.0
e 375 637 41.0
e 375 12 32.0
e 375 614 38.0
e 376 21 45.0
e 376 423 2.0
e 376 258 29.0
e 376 137 49.0
e 376 102 6.0
e 376 340 33.0
e 376 106 44.0
e 377 254 1.0
e 377 493 1.0
e 377 578 1.0
e 377 300 14.0
e 378 397 13.0
e 378 395 1.0
e 378 342 1.0
e 378 590 2.0
e 379 264 1.0
e 379 549 1.0
e 379 488 41.0
e 379 39 2.0
e 380 64 1.0
e 380 190 3.0
e 380 483 2.0
e 380 421 2.0
e 381 594 45.0
e 381 521 6.0
e 381 350 19.0
e 381 167 32.0
e 381 376 12.0
e 381 413 48.0
e 382 298 1.0
e 382 587 1.0
e 382 430 1.0
e 382 274 2.0
e 383 612 10.0
e 383 5 2.0
e 383 350 23.0
e 383 573 1.0
e 384 208 1.0
e 384 574 1.0
e 384 6 1.0
e 384 520 7.0
e 385 595 2.0
e 385 329 1.0
e 385 178 2.0
e 385 49 1.0
e 386 297 22.0
e 386 373 2.0
e 386 191 47.0
e 386 404 5.0
e 386 292 47.0
e 386 207 2.0
e 386 381 15.0
e 386 603 23.0
e 387 178 1.0
e 387 359 1.0
e 387 278 1.0
e 387 129 1.0
e 388 132 1.0
e 388 172 1.0
e 388 455 1.0
e 388 211 1.0
e 389 587 1.0
e 389 403 1.0
e 389 259 2.0
e 389 243 1.0
e 390 630 1.0
e 390 119 6.0
e 390 589 39.0
e 390 242 1.0
e 391 282 1.0
e 391 167 1.0
e 391 531 1.0
e 391 575 1.0
e 392 486 23.0
e 392 314 9.0
e 392 339 35.0
e 392 320 23.0
e 392 17 35.0
e 392 350 37.0
e 392 547 30.0
e 393 447 1.0
e 393 239 1.0
e 393 172 1.0
e 393 334 8.0
e 394 24 1.0
e 394 520 45.0
e 394 542 1.0
e 394 59 2.0
e 395 361 1.0
e 395 122 1.0
e 395 153 1.0
e 395 242 2.0
e 396 360 1.0
e 396 412 1.0
e 396 629 1.0
e 396 18 2.0
e 397 16 26.0
e 397 303 7.0
e 397 491 15.0
e 397 447 3.0
e 398 91 1.0
e 398 269 2.0
e 398 460 2.0
e 398 94 1.0
e 399 542 1.0
e 399 288 1.0
e 399 488 23.0
e 399 479 2.0
e 400 110 1.0
e 400 258 1.0
e 400 320 1.0
e 400 190 1.0
e 401 182 3.0
e 401 343 1.0
e 401 76 1.0
e 401 233 2.0
e 402 52 1.0
e 402 556 1.0
e 402 28 1.0
e 402 500 1.0
e 403 536 1.0
e 403 186 1.0
e 403 20 1.0
e 403 152 1.0
e 404 377 2.0
e 404 325 1.0
e 404 564 1.0
e 404 488 33.0
e 405 139 23.0
e 405 208 28.0
e 405 471 9.0
e 405 279 49.0
e 405 22 45.0
e 405 108 33.0
e 405 547 41.0
e 406 328 1.0
e 406 423 44.0
e 406 585 2.0
e 406 489 2.0
e 407 145 1.0
e 407 104 1.0
e 407 389 1.0
e 407 387 1.0
e 408 620 2.0
e 408 290 2.0
e 408 226 1.0
e 408 361 1.0
e 409 560 1.0
e 409 566 1.0
e 409 163 1.0
e 409 199 2.0
e 410 488 21.0
e 410 431 3.0
e 410 548 2.0
e 410 16 2.0
e 411 354 1.0
e 411 497 1.0
e 411 202 1.0
e 411 608 40.0
e 412 426 1.0
e 412 587 2.0
e 412 366 1.0
e 412 232 2.0
e 413 375 44.0
e 413 437 7.0
e 413 98 48.0
e 413 297 29.0
e 414 323 1.0
e 414 308 8.0
e 414 611 2.0
e 414 294 1.0
e 415 156 2.0
e 415 563 2.0
e 415 608 21.0
e 415 274 1.0
e 416 535 1.0
e 416 11 1.0
e 416 217 1.0
e 416 181 1.0
e 417 403 2.0
e 417 348 1.0
e 417 550 2.0
e 417 486 2.0
e 418 489 1.0
e 418 92 1.0
e 418 439 2.0
e 418 181 1.0
e 419 211 2.0
e 419 455 1.0
e 419 245 1.0
e 419 89 3.0
e 420 247 2.0
e 420 216 1.0
e 420 69 1.0
e 420 135 1.0
e 421 294 2.0
e 421 267 2.0
e 421 320 1.0
e 421 9 2.0
e 422 529 2.0
e 422 386 16.0
e 422 264 2.0
e 422 433 1.0
e 423 479 7.0
e 423 553 27.0
e 423 157 39.0
e 423 475 18.0
e 423 530 11.0
e 424 212 2.0
e 424 249 1.0
e 424 381 22.0
e 424 304 2.0
e 425 8 2.0
e 425 312 1.0
e 425 290 2.0
e 425 200 1.0
e 426 128 2.0
e 426 467 1.0
e 426 193 2.0
e 426 445 1.0
e 427 635 35.0
e 427 316 20.0
e 427 130 45.0
e 427 356 47.0
e 427 423 23.0
e 427 386 1.0
e 428 349 1.0
e 428 469 1.0
e 428 24 1.0
e 428 466 1.0
e 429 125 24.0
e 429 411 3.0
e 429 123 1.0
e 429 144 2.0
e 430 35 1.0
e 430 544 1.0
e 430 277 1.0
e 430 32 1.0
e 431 342 1.0
e 431 564 27.0
e 431 452 1.0
e 431 479 1.0
e 432 585 1.0
e 432 444 1.0
e 432 600 42.0
e 432 52 2.0
e 433 90 1.0
e 433 602 1.0
e 433 165 1.0
e 433 544 1.0
e 434 298 1.0
e 434 166 1.0
e 434 292 11.0
e 434 445 1.0
e 435 176 1.0
e 435 485 27.0
e 435 152 1.0
e 435 64 1.0
e 436 201 1.0
e 436 318 1.0
e 436 470 1.0
e 436 546 1.0
e 437 86 1.0
e 437 359 1.0
e 437 539 1.0
e 437 426 1.0
e 438 544 2.0
e 438 522 1.0
e 438 454 1.0
e 438 564 23.0
e 439 552 1.0
e 439 315 1.0
e 439 151 1.0
e 439 207 30.0
e 440 473 42.0
e 440 383 1.0
e 440 238 1.0
e 440 361 1.0
e 441 621 2.0
e 441 83 1.0
e 441 95 1.0
e 442 42 22.0
e 442 250 2.0
e 442 455 1.0
e 442 546 1.0
e 443 528 40.0
e 443 549 1.0
e 443 83 1.0
e 443 389 3.0
e 444 80 2.0
e 444 481 1.0
e 444 291 2.0
e 444 354 2.0
e 445 238 1.0
e 445 587 1.0
e 445 596 1.0
e 445 532 1.0
e 446 375 42.0
e 446 109 2.0
e 446 246 1.0
e 446 184 4.0
e 447 593 16.0
e 447 409 1.0
e 447 251 1.0
e 447 145 1.0
e 448 567 2.0
e 448 189 2.0
e 448 207 20.0
e 448 248 1.0
e 449 204 2.0
e 449 519 1.0
e 449 152 1.0
e 449 218 2.0
e 450 414 2.0
e 450 160 1.0
e 450 125 36.0
e 450 433 2.0
e 451 565 2.0
e 451 576 1.0
e 451 380 1.0
e 451 259 1.0
e 452 114 1.0
e 452 496 1.0
e 452 150 1.0
e 452 217 1.0
e 453 438 1.0
e 453 614 1.0
e 453 370 1.0
e 453 410 1.0
e 454 484 1.0
e 454 536 1.0
e 454 193 1.0
e 454 365 1.0
e 455 46 2.0
e 455 322 2.0
e 455 533 1.0
e 455 228 44.0
e 456 482 4.0
e 456 542 1.0
e 456 469 1.0
e 456 319 2.0
e 457 16 1.0
e 457 474 39.0
e 457 414 1.0
e 457 134 1.0
e 458 19 41.0
e 458 235 48.0
e 458 99 9.0
e 458 37 37.0
e 458 392 38.0
e 459 85 2.0
e 459 144 1.0
e 459 218 1.0
e 459 122 1.0
e 460 337 1.0
e 460 420 1.0
e 460 164 1.0
e 460 331 1.0
e 461 277 3.0
e 461 308 24.0
e 461 373 46.0
e 461 203 9.0
e 461 161 34.0
e 461 397 27.0
e 462 504 1.0
e 462 139 1.0
e 462 598 1.0
e 462 430 1.0
e 463 49 1.0
e 463 606 2.0
e 463 420 1.0
e 463 312 1.0
e 464 497 1.0
e 464 613 2.0
e 464 383 1.0
e 464 632 1.0
e 465 338 1.0
e 465 493 1.0
e 465 111 1.0
e 465 570 1.0
e 466 360 2.0
e 466 615 1.0
e 466 377 2.0
e 466 154 36.0
e 467 130 1.0
e 467 275 1.0
e 467 484 1.0
e 467 532 1.0
e 468 584 1.0
e 468 589 9.0
e 468 580 21.0
e 468 16 1.0
e 469 558 2.0
e 469 580 9.0
e 469 91 1.0
e 469 626 1.0
e 470 139 1.0
e 470 86 1.0
e 470 513 2.0
e 470 8 3.0
e 471 324 1.0
e 471 415 1.0
e 471 592 2.0
e 471 401 2.0
e 472 109 1.0
e 472 63 2.0
e 472 590 1.0
e 472 116 1.0
e 473 466 40.0
e 473 379 27.0
e 473 434 37.0
e 473 543 23.0
e 473 405 24.0
e 474 41 39.0
e 474 239 7.0
e 474 434 36.0
e 474 11 23.0
e 474 413 16.0
e 474 458 37.0
e 475 418 1.0
e 475 268 2.0
e 475 224 2.0
e 475 236 2.0
e 476 121 41.0
e 476 79 15.0
e 476 280 31.0
e 476 91 26.0
e 477 38 1.0
e 477 393 1.0
e 477 349 2.0
e 477 499 1.0
e 478 353 1.0
e 478 90 1.0
e 478 519 1.0
e 478 167 1.0
e 479 535 1.0
e 479 59 1.0
e 479 637 2.0
e 480 428 1.0
e 480 29 1.0
e 480 269 1.0
e 480 295 4.0
e 481 522 1.0
e 481 171 1.0
e 481 203 1.0
e 481 67 1.0
e 482 154 14.0
e 482 80 20.0
e 482 449 21.0
e 482 373 9.0
e 482 296 11.0
e 483 188 1.0
e 483 2 1.0
e 483 332 2.0
e 483 574 1.0
e 484 128 1.0
e 484 71 1.0
e 484 573 1.0
e 484 137 1.0
e 485 264 45.0
e 485 567 19.0
e 485 535 38.0
e 485 563 16.0
e 486 319 1.0
e 486 251 1.0
e 486 365 1.0
e 486 586 1.0
e 487 492 10.0
e 487 129 43.0
e 487 300 46.0
e 487 313 41.0
e 488 577 44.0
e 488 515 41.0
e 488 401 41.0
e 488 72 12.0
e 489 256 2.0
e 489 61 1.0
e 489 176 1.0
e 489 104 1.0
e 490 508 1.0
e 490 541 1.0
e 490 130 1.0
e 490 491 1.0
e 491 559 2.0
e 491 595 1.0
e 491 501 2.0
e 491 428 2.0
e 492 258 1.0
e 492 609 1.0
e 492 234 1.0
e 492 70 1.0
e 493 378 1.0
e 493 142 1.0
e 493 560 1.0
e 493 74 1.0
e 494 371 1.0
e 494 459 1.0
e 494 383 1.0
e 494 73 1.0
e 495 581 1.0
e 495 589 11.0
e 495 566 1.0
e 495 212 1.0
e 496 493 1.0
e 496 139 1.0
e 496 481 1.0
e 496 19 1.0
e 497 476 40.0
e 497 4 2.0
e 497 234 1.0
e 497 47 1.0
e 498 219 1.0
e 498 629 2.0
e 498 40 1.0
e 498 587 2.0
e 499 61 1.0
e 499 589 28.0
e 499 415 3.0
e 499 613 2.0
e 500 601 3.0
e 500 367 1.0
e 500 584 2.0
e 500 164 1.0
e 501 399 1.0
e 501 176 1.0
e 501 416 2.0
e 502 543 7.0
e 502 365 3.0
e 502 224 1.0
e 502 146 1.0
e 503 223 1.0
e 503 307 1.0
e 503 421 1.0
e 503 228 32.0
e 504 173 1.0
e 504 233 1.0
e 504 427 29.0
e 504 13 1.0
e 505 190 1.0
e 505 367 1.0
e 505 368 1.0
e 505 106 40.0
e 506 633 33.0
e 506 140 15.0
e 506 523 1.0
e 506 283 1.0
e 507 262 26.0
e 507 168 27.0
e 507 500 41.0
e 507 157 48.0
e 508 102 38.0
e 508 388 1.0
e 508 449 1.0
e 508 547 15.0
e 509 201 2.0
e 509 473 19.0
e 509 476 26.0
e 510 260 1.0
e 510 105 1.0
e 510 292 21.0
e 510 462 1.0
e 511 384 2.0
e 511 568 1.0
e 511 494 1.0
e 511 305 1.0
e 512 601 1.0
e 512 156 1.0
e 512 490 1.0
e 512 440 2.0
e 513 221 6.0
e 513 247 1.0
e 513 199 1.0
e 513 139 1.0
e 514 191 1.0
e 514 239 1.0
e 514 395 1.0
e 514 194 1.0
e 515 196 1.0
e 515 441 3.0
e 515 331 1.0
e 515 576 1.0
e 516 379 1.0
e 516 49 1.0
e 516 425 1.0
e 516 506 1.0
e 517 322 1.0
e 517 95 2.0
e 517 162 2.0
e 517 507 9.0
e 518 290 1.0
e 518 313 1.0
e 518 481 2.0
e 518 407 1.0
e 519 108 4.0
e 519 237 1.0
e 519 50 2.0
e 519 43 1.0
e 520 9 45.0
e 520 71 39.0
e 520 162 1.0
e 520 38 38.0
e 521 234 1.0
e 521 227 2.0
e 521 388 2.0
e 521 93 2.0
e 522 219 1.0
e 522 312 1.0
e 522 342 1.0
e 522 103 1.0
e 523 239 1.0
e 523 174 3.0
e 523 357 2.0
e 523 494 2.0
e 524 161 24.0
e 524 580 6.0
e 524 128 1.0
e 524 383 1.0
e 525 382 1.0
e 525 16 2.0
e 525 493 1.0
e 525 312 1.0
e 526 275 11.0
e 526 150 29.0
e 526 523 8.0
e 526 202 4.0
e 526 272 18.0
e 527 380 1.0
e 527 405 24.0
e 527 258 1.0
e 527 615 2.0
e 528 398 9.0
e 528 503 45.0
e 528 378 47.0
e 528 312 36.0
e 528 115 41.0
e 528 427 27.0
e 528 461 43.0
e 528 473 16.0
e 529 516 1.0
e 529 414 1.0
e 529 377 1.0
e 529 267 2.0
e 530 97 28.0
e 530 498 30.0
e 530 258 48.0
e 530 208 29.0
e 530 474 11.0
e 531 444 1.0
e 531 638 1.0
e 531 270 1.0
e 531 246 1.0
e 532 47 1.0
e 532 337 1.0
e 532 276 1.0
e 532 170 2.0
e 533 511 2.0
e 533 166 1.0
e 533 106 45.0
e 533 428 1.0
e 534 254 1.0
e 534 279 1.0
e 534 565 2.0
e 534 54 1.0
e 535 552 1.0
e 535 453 1.0
e 535 364 2.0
e 535 58 2.0
e 536 465 1.0
e 536 589 9.0
e 536 515 1.0
e 536 108 25.0
e 537 543 49.0
e 537 447 1.0
e 537 589 7.0
e 537 545 1.0
e 538 157 1.0
e 538 410 2.0
e 538 187 1.0
e 538 507 13.0
e 539 119 2.0
e 539 602 3.0
e 539 511 3.0
e 539 403 1.0
e 540 78 1.0
e 540 98 1.0
e 540 406 2.0
e 540 52 1.0
e 541 485 8.0
e 541 254 1.0
e 541 106 22.0
e 541 558 2.0
e 542 419 2.0
e 542 483 1.0
e 542 515 2.0
e 543 188 8.0
e 543 233 47.0
e 543 275 14.0
e 543 2 18.0
e 544 45 1.0
e 544 49 2.0
e 544 507 25.0
e 544 514 2.0
e 545 100 1.0
e 545 282 1.0
e 545 409 1.0
e 545 174 1.0
e 546 80 1.0
e 546 255 1.0
e 546 407 1.0
e 546 416 1.0
e 547 526 38.0
e 547 635 21.0
e 547 141 37.0
e 547 420 29.0
e 548 330 1.0
e 548 23 1.0
e 548 50 1.0
e 548 27 2.0
e 549 140 45.0
e 549 186 2.0
e 549 511 1.0
e 549 281 1.0
e 550 26 1.0
e 550 126 1.0
e 550 173 1.0
e 550 630 1.0
e 551 122 2.0
e 551 236 2.0
e 551 349 1.0
e 551 294 1.0
e 552 377 2.0
e 552 500 2.0
e 552 598 1.0
e 552 630 1.0
e 553 485 43.0
e 553 372 1.0
e 553 248 1.0
e 553 626 1.0
e 554 275 1.0
e 554 141 2.0
e 554 459 1.0
e 554 4 1.0
e 555 609 2.0
e 555 8 1.0
e 555 48 1.0
e 555 413 4.0
e 556 616 1.0
e 556 611 1.0
e 556 202 1.0
e 556 378 1.0
e 557 499 1.0
e 557 68 1.0
e 557 508 1.0
e 557 5 1.0
e 558 188 1.0
e 558 11 2.0
e 558 140 29.0
e 558 217 2.0
e 559 283 1.0
e 559 572 1.0
e 559 16 1.0
e 559 594 1.0
e 560 89 1.0
e 560 166 1.0
e 560 447 1.0
e 560 577 1.0
e 561 321 1.0
e 561 353 1.0
e 561 217 1.0
e 561 236 1.0
e 562 213 1.0
e 562 234 1.0
e 562 339 1.0
e 562 542 1.0
e 563 139 1.0
e 563 265 1.0
e 563 328 1.0
e 563 153 1.0
e 564 112 5.0
e 564 341 7.0
e 564 310 43.0
e 564 38 33.0
e 565 422 1.0
e 565 160 1.0
e 565 334 49.0
e 565 10 1.0
e 566 356 2.0
e 566 238 1.0
e 566 37 2.0
e 566 384 3.0
e 567 96 1.0
e 567 227 1.0
e 567 452 1.0
e 567 264 2.0
e 568 513 2.0
e 568 157 1.0
e 568 352 1.0
e 568 394 2.0
e 569 213 1.0
e 569 498 1.0
e 569 613 1.0
e 569 323 2.0
e 570 568 1.0
e 570 477 1.0
e 570 632 1.0
e 570 9 3.0
e 571 262 1.0
e 571 479 1.0
e 571 343 1.0
e 571 452 1.0
e 572 365 1.0
e 572 321 1.0
e 572 196 1.0
e 572 453 1.0
e 573 13 1.0
e 573 148 21.0
e 573 492 1.0
e 574 140 49.0
e 574 98 1.0
e 574 610 1.0
e 574 57 46.0
e 575 29 1.0
e 575 57 11.0
e 575 338 1.0
e 575 578 1.0
e 576 606 1.0
e 576 229 1.0
e 576 460 1.0
e 576 595 2.0
e 577 7 1.0
e 577 304 1.0
e 577 270 2.0
e 577 355 1.0
e 578 33 1.0
e 578 331 1.0
e 578 242 1.0
e 578 416 1.0
e 579 154 5.0
e 579 363 2.0
e 579 177 3.0
e 579 479 2.0
e 580 485 16.0
e 580 245 36.0
e 580 80 13.0
e 580 504 39.0
e 581 170 1.0
e 581 373 32.0
e 581 401 1.0
e 581 275 1.0
e 582 110 1.0
e 582 354 1.0
e 582 499 1.0
e 582 158 1.0
e 583 166 1.0
e 583 486 1.0
e 583 42 6.0
e 583 570 2.0
e 584 200 1.0
e 584 456 2.0
e 584 440 2.0
e 584 453 1.0
e 585 328 1.0
e 585 412 2.0
e 585 299 36.0
e 585 478 2.0
e 586 48 38.0
e 586 637 41.0
e 586 98 45.0
e 586 223 16.0
e 587 469 1.0
e 587 275 1.0
e 587 21 1.0
e 587 504 1.0
e 588 7 1.0
e 588 522 1.0
e 588 224 1.0
e 588 482 36.0
e 589 138 40.0
e 589 369 43.0
e 589 219 45.0
e 589 418 44.0
e 590 454 1.0
e 590 253 2.0
e 590 85 1.0
e 590 124 40.0
e 591 634 2.0
e 591 389 1.0
e 591 445 1.0
e 591 130 1.0
e 592 246 1.0
e 592 220 1.0
e 592 347 1.0
e 592 489 1.0
e 593 555 45.0
e 593 541 29.0
e 593 306 49.0
e 593 128 34.0
e 594 275 1.0
e 594 389 1.0
e 594 426 2.0
e 594 228 22.0
e 595 164 1.0
e 595 300 33.0
e 595 92 2.0
e 596 34 33.0
e 596 373 5.0
e 596 46 1.0
e 596 126 1.0
e 597 146 48.0
e 597 546 10.0
e 597 189 8.0
e 597 594 10.0
e 598 533 2.0
e 598 129 1.0
e 598 1 1.0
e 598 157 1.0
e 599 163 1.0
e 599 543 31.0
e 599 244 1.0
e 599 117 1.0
e 600 71 4.0
e 600 477 11.0
e 600 124 38.0
e 600 506 13.0
e 601 72 1.0
e 601 219 2.0
e 601 80 1.0
e 602 622 2.0
e 602 278 1.0
e 602 3 2.0
e 602 21 1.0
e 603 215 20.0
e 603 349 22.0
e 603 334 8.0
e 603 182 26.0
e 603 482 8.0
e 603 487 25.0
e 603 124 22.0
e 604 206 28.0
e 604 196 44.0
e 604 338 49.0
e 604 614 4.0
e 604 125 44.0
e 605 40 1.0
e 605 87 1.0
e 605 233 1.0
e 605 91 1.0
e 606 217 1.0
e 606 560 1.0
e 606 605 1.0
e 606 509 2.0
e 607 342 2.0
e 607 42 18.0
e 607 307 1.0
e 607 320 1.0
e 608 576 15.0
e 608 509 36.0
e 608 198 7.0
e 608 545 19.0
e 608 168 19.0
e 608 299 15.0
e 609 428 2.0
e 609 190 1.0
e 609 334 20.0
e 609 206 1.0
e 610 36 1.0
e 610 59 1.0
e 610 5 1.0
e 610 56 1.0
e 611 143 1.0
e 611 248 1.0
e 611 90 1.0
e 611 256 1.0
e 612 518 49.0
e 612 245 27.0
e 612 6 4.0
e 612 347 13.0
e 612 526 4.0
e 612 300 30.0
e 613 543 47.0
e 613 182 1.0
e 613 446 3.0
e 613 583 2.0
e 614 292 20.0
e 614 625 1.0
e 614 49 1.0
e 614 364 1.0
e 615 410 2.0
e 615 12 1.0
e 615 209 2.0
e 615 87 1.0
e 616 337 2.0
e 616 504 2.0
e 616 80 2.0
e 616 492 1.0
e 617 549 1.0
e 617 34 34.0
e 617 359 1.0
e 617 228 48.0
e 618 562 1.0
e 618 493 1.0
e 618 620 1.0
e 618 407 1.0
e 619 529 1.0
e 619 95 2.0
e 619 488 29.0
e 619 569 2.0
e 620 224 1.0
e 620 206 1.0
e 620 125 39.0
e 620 232 1.0
e 621 498 1.0
e 621 89 1.0
e 621 476 7.0
e 621 415 1.0
e 622 363 1.0
e 622 205 2.0
e 622 507 8.0
e 622 618 1.0
e 623 226 1.0
e 623 580 20.0
e 623 540 1.0
e 623 100 1.0
e 624 292 41.0
e 624 451 1.0
e 624 334 18.0
e 624 593 23.0
e 625 434 3.0
e 625 119 13.0
e 625 451 2.0
e 625 456 1.0
e 626 331 1.0
e 626 301 2.0
e 626 161 24.0
e 626 488 32.0
e 627 358 1.0
e 627 630 1.0
e 627 412 1.0
e 627 578 1.0
e 628 516 2.0
e 628 482 11.0
e 628 237 1.0
e 628 314 1.0
e 629 398 1.0
e 629 6 2.0
e 629 65 1.0
e 629 201 1.0
e 630 380 1.0
e 630 576 1.0
e 630 50 1.0
e 630 223 1.0
e 631 68 1.0
e 631 198 44.0
e 631 45 1.0
e 631 56 1.0
e 632 62 17.0
e 632 113 1.0
e 632 186 1.0
e 632 446 1.0
e 633 187 14.0
e 633 312 24.0
e 633 426 32.0
e 633 237 15.0
e 634 112 1.0
e 634 250 1.0
e 634 265 1.0
e 634 18 1.0
e 635 517 1.0
e 635 574 1.0
e 635 282 1.0
e 635 320 1.0
e 636 180 1.0
e 636 257 1.0
e 636 32 2.0
e 636 519 2.0
e 637 529 2.0
e 637 510 1.0
e 637 314 1.0
e 637 96 1.0
e 638 406 1.0
e 638 540 1.0
e 638 73 2.0
e 638 176 1.0
e 639 22 28.0
e 639 554 1.0
e 639 84 3.0
e 639 594 1.0
